% Generado automáticamente desde instancia_01_consenso.pca.
% No editar manualmente: use el conversor PCA.

n = 10;
m = 4;
p = [7, 0, 3, 0];

escala_v = 100;
v = [0, 33, 66, 100];

escala_costo = 1;
ce = [1, 4, 2, 5];
ct = 12;

c = array2d(1..4, 1..4, [
    0, 2, 5, 8,
    2, 0, 2, 5,
    3, 2, 0, 2,
    7, 4, 2, 0
]);
